; aiohttp :: corpus-study/repo_src/aiohttp/docs/code/client_middleware_cookbook.py :: EVENT 'token_refresh_preemptively_example.auto_refresh_client::ready' :: structured encoding (verdict: sat)
; Generated by snf-pipeline (encoder.py) -- run with any
; SMT-LIB2-compliant solver, e.g. `z3 aiohttp__corpus-study_repo_src_aiohttp_docs_code_client_middleware_cookbook.py__token_refresh_preemptively_example.auto_refresh_client__ready__structured.smt2`
; benchmark generated from python API
(set-info :status unknown)
(declare-fun ewake_0 () Bool)
(assert
 (let (($x6 (not ewake_0)))
(or $x6)))
(check-sat)
